NAME : 10_3_3_3_(18).dat
COMMENT : Henke, Speranza, Wäscher, 2015
TYPE : MCVRP
DIMENSION : 11
EDGE_WEIGHT_TYPE : DISTANCE_MATRIX
CAPACITY : 1000
VEHICLES : 2
PRODUCT TYPES : 3
COMPARTMENTS : 3
NODE_COORD_SECTION
1 50 50
2 50.61 57.79
3 4.26 86.54
4 71.92 35.79
5 91.85 38.41
6 57.54 27.58
7 36.58 88.54
8 22.96 43.5
9 7.12 48.37
10 90.09 57.83
11 22.76 51.24
DEMAND_SECTION
1 0 0 0
2 64 57 6
3 74 57 40
4 1 6 25
5 37 8 40
6 80 70 32
7 61 39 10
8 28 15 23
9 95 52 32
10 100 55 16
11 100 24 33
DEPOT_SECTION
1
EOF